# SCIP version 3.0.2.1

detection/detectors/hrcgpartition/enabled = FALSE
detection/detectors/hcgpartition/enabled = FALSE
detection/detectors/hrgpartition/enabled = FALSE
detection/detectors/stairheur/enabled = FALSE
detection/detectors/isomorph/enabled = FALSE
detection/detectors/compgreedily/enabled = FALSE
detection/detectors/connectedbase/enabled = FALSE
detection/detectors/connectedbase/enabledfinishing = TRUE
detection/detectors/compgreedily/enabled = FALSE
detection/detectors/compgreedily/enabledfinishing = FALSE
detection/detectors/connected_nonewlinkingvars/enabled = FALSE
detection/detectors/mastersetpack/enabled = FALSE
detection/detectors/generalmastersetpack/enabled = FALSE
detection/detectors/generalmastersetpart/enabled = FALSE
detection/detectors/generalmastersetcover/enabled = FALSE
detection/detectors/mastersetpart/enabled = FALSE
detection/detectors/mastersetcover/enabled = FALSE
detection/detectors/constype/enabled = FALSE
detection/detectors/staircase_lsp/enabled = FALSE

timing/clocktype = 2
limits/time = 46800